Maximize
 obj: 541922 x0 + 585271 x1 + 562687 x2 + 453150 x3 + 432973 x4 + 386783 x5 + 360681 x6 + 337364 x7 + 326643 x8 + 583289 x9 + 652475 x10 + 511703 x11 + 511413 x12 + 502222 x13 + 443881 x14 + 438192 x15 + 417265 x16 + 425291 x17 + 496554 x18 + 449941 x19 + 411100 x20 + 385962 x21 + 358830 x22 + 306848 x23 + 287608 x24 + 24792 x25 + 68972 x26 + 51346 x27 + 115009 x28 + 137842 x29 + 114435 x30 + 90594 x31 + 46001 x32 + 318102 x33 + 323686 x34 + 309922 x35 + 260150 x36 + 195237 x37 + 124877 x38 + 118991 x39 + 69467 x40 
Subject To
 c1:  x13 +  x15 +  x22  <= 1
 c2:  x10 +  x13 +  x14 +  x15 +  x29 +  x31 +  x37  <= 1
 c3:  x20 +  x33 +  x37  <= 1
 c4:  x16  <= 1
 c5:  x0 +  x4 +  x35  <= 1
 c6:  x0 +  x5 +  x6 +  x11 +  x24  <= 1
 c7:  x7  <= 1
 c8:  x16 +  x35  <= 1
 c9:  x5 +  x7 +  x21  <= 1
 c10:  x5  <= 1
 c11:  x1 +  x3 +  x4 +  x7 +  x16  <= 1
 c12:  x4 +  x34  <= 1
 c13:  x9 +  x15 +  x17 +  x22 +  x30  <= 1
 c14:  x12 +  x39  <= 1
 c15:  x3 +  x10 +  x14  <= 1
 c16:  x0 +  x2 +  x3 +  x8 +  x9 +  x11 +  x12 +  x13 +  x21  <= 1
 c17:  x3 +  x6 +  x10 +  x15 +  x17 +  x21 +  x23  <= 1
 c18:  x5 +  x12 +  x15 +  x20 +  x21  <= 1
 c19:  x28  <= 1
 c20:  x0 +  x3  <= 1
 c21:  x2 +  x3 +  x4 +  x8 +  x17 +  x18 +  x19  <= 1
 c22:  x10 +  x14 +  x18 +  x22 +  x24  <= 1
 c23:  x18  <= 1
 c24:  x1 +  x9 +  x10 +  x12 +  x36  <= 1
 c25:  x13 +  x23  <= 1
 c26:  x5 +  x24  <= 1
 c27:  x1 +  x23 +  x37  <= 1
 c28:  x2 +  x19 +  x21  <= 1
 c29:  x6 +  x24 +  x25  <= 1
 c30:  x8 +  x33 +  x35 +  x36  <= 1
 c31:  x18 +  x21  <= 1
 c32:  x2 +  x11 +  x18 +  x19 +  x20 +  x22  <= 1
 c33:  x5 +  x34  <= 1
 c34:  x4 +  x16 +  x20 +  x40  <= 1
 c35:  x2 +  x13 +  x14 +  x20  <= 1
 c36:  x4 +  x19 +  x24  <= 1
 c37:  x8  <= 1
 c38:  x1 +  x38 +  x39  <= 1
 c39:  x7 +  x14 +  x22 +  x27  <= 1
 c40:  x11  <= 1
 c41:  x11  <= 1
 c42:  x33 +  x34 +  x35 +  x36 +  x37  <= 1
 c43:  x19  <= 1
 c44:  x21  <= 1
 c45:  x29 +  x30 +  x31  <= 1
 c46:  x26 +  x27  <= 1
 c47:  x17 +  x18 +  x19 +  x20 +  x21 +  x22 +  x23 +  x24  <= 1
 c48:  x9 +  x10 +  x11 +  x12 +  x13 +  x14 +  x15 +  x16  <= 1
 c49:  x0 +  x1 +  x2 +  x3 +  x4 +  x5 +  x6 +  x7 +  x8  <= 1
 c50:  x9 +  x12 +  x16 +  x23 +  x36  <= 1
 c51:  x5 +  x15 +  x24 +  x31  <= 1
 c52:  x6 +  x9 +  x10 +  x11 +  x15  <= 1
 c53:  x12  <= 1
 c54:  x38 +  x39 +  x40  <= 1
 c55:  x7 +  x8 +  x9 +  x14 +  x17 +  x23 +  x37  <= 1
 c56:  x1 +  x10 +  x22 +  x34 +  x35  <= 1
 c57:  x7 +  x8 +  x33 +  x34  <= 1
 c58:  x17 +  x33 +  x36  <= 1
 c59:  x8 +  x12 +  x16 +  x19  <= 1
 c60:  x1 +  x2  <= 1
 c61:  x3 +  x11 +  x18 +  x22 +  x23  <= 1
 c62:  x12  <= 1
 c63:  x6 +  x26 +  x27  <= 1
 c64:  x1 +  x2 +  x3  <= 1
 c65:  x4 +  x7 +  x9 +  x11 +  x17 +  x20  <= 1
 c66:  x0 +  x1 +  x9 +  x13 +  x15 +  x16  <= 1
 c67:  x0 +  x5 +  x7 +  x18 +  x29 +  x30  <= 1
 c68:  x6  <= 1
 c69:  x4 +  x13 +  x19  <= 1
 c70:  x0 +  x2 +  x19 +  x23 +  x24  <= 1
 c71:  x0 +  x6  <= 1
 c72:  x6 +  x21  <= 1
 c73:  x8 +  x13 +  x14 +  x17 +  x18 +  x20 +  x23  <= 1
 c74:  x14 +  x16 +  x32  <= 1
 c75:  x20 +  x22  <= 1
 c76:  x10 +  x17 +  x24  <= 1
 c77:  x26 +  x38 +  x40  <= 1
Bounds
 0 <= x0 <= 1
 0 <= x1 <= 1
 0 <= x2 <= 1
 0 <= x3 <= 1
 0 <= x4 <= 1
 0 <= x5 <= 1
 0 <= x6 <= 1
 0 <= x7 <= 1
 0 <= x8 <= 1
 0 <= x9 <= 1
 0 <= x10 <= 1
 0 <= x11 <= 1
 0 <= x12 <= 1
 0 <= x13 <= 1
 0 <= x14 <= 1
 0 <= x15 <= 1
 0 <= x16 <= 1
 0 <= x17 <= 1
 0 <= x18 <= 1
 0 <= x19 <= 1
 0 <= x20 <= 1
 0 <= x21 <= 1
 0 <= x22 <= 1
 0 <= x23 <= 1
 0 <= x24 <= 1
 0 <= x25 <= 1
 0 <= x26 <= 1
 0 <= x27 <= 1
 0 <= x28 <= 1
 0 <= x29 <= 1
 0 <= x30 <= 1
 0 <= x31 <= 1
 0 <= x32 <= 1
 0 <= x33 <= 1
 0 <= x34 <= 1
 0 <= x35 <= 1
 0 <= x36 <= 1
 0 <= x37 <= 1
 0 <= x38 <= 1
 0 <= x39 <= 1
 0 <= x40 <= 1
End